data;


param d:= 100;
param r:=5;
param p:=0.860000;
param M:=1000;
param U:=
         1         1       -2.822854e+00
         2         1        1.555783e+00
         3         1        4.945722e-01
         4         1       -1.341073e+00
         5         1        1.702728e+00
         6         1        5.226616e-01
         7         1       -7.111741e-01
         8         1       -6.812877e-01
         9         1       -1.016952e+00
        10         1        1.941292e+00
        11         1       -1.255553e+00
        12         1        1.230658e+00
        13         1        7.164420e-01
        14         1       -9.436164e-01
        15         1       -1.200168e-01
        16         1        4.980275e-01
        17         1        5.210235e-01
        18         1        1.565458e-01
        19         1        3.658131e-01
        20         1        9.112568e-01
        21         1       -5.641905e-01
        22         1        5.911916e-02
        23         1        8.560593e-01
        24         1       -2.198572e-01
        25         1       -6.160213e-01
        26         1        1.917054e-01
        27         1        1.403961e+00
        28         1       -5.102714e-01
        29         1       -2.293089e+00
        30         1        1.680831e-01
        31         1       -3.871529e-01
        32         1        1.347599e+00
        33         1        9.326670e-01
        34         1       -6.070988e-01
        35         1       -9.907182e-01
        36         1        1.607657e-01
        37         1        1.087043e+00
        38         1        1.401095e+00
        39         1       -6.890883e-01
        40         1        5.271173e-01
        41         1       -6.729974e-01
        42         1        8.738024e-01
        43         1       -2.133089e-01
        44         1       -9.307762e-01
        45         1        3.271405e-01
        46         1        1.285880e+00
        47         1       -2.063809e-01
        48         1        2.321717e-01
        49         1       -2.080421e-01
        50         1       -2.260557e+00
        51         1        1.067688e+00
        52         1        7.815066e-01
        53         1        1.447965e+00
        54         1       -2.554843e-01
        55         1       -2.353241e+00
        56         1       -4.497910e-01
        57         1        6.677379e-01
        58         1        8.467399e-01
        59         1       -7.449068e-01
        60         1       -1.231369e-01
        61         1        6.990731e-01
        62         1        5.813313e-01
        63         1        1.039591e+00
        64         1       -1.414465e+00
        65         1       -1.200832e-01
        66         1       -3.792075e-01
        67         1        1.465197e+00
        68         1        1.713604e-02
        69         1        9.531302e-01
        70         1        7.393752e-01
        71         1        2.052614e+00
        72         1       -5.476979e-01
        73         1        2.924664e-01
        74         1       -7.724266e-01
        75         1        9.824382e-01
        76         1       -7.900025e-01
        77         1       -3.270723e-01
        78         1       -2.238802e+00
        79         1       -2.269029e+00
        80         1       -8.559479e-01
        81         1       -5.305885e-01
        82         1       -4.144137e-01
        83         1       -2.144207e+00
        84         1        3.836577e-01
        85         1        1.271416e+00
        86         1       -9.468794e-02
        87         1       -1.931727e+00
        88         1       -2.254523e+00
        89         1        1.836551e+00
        90         1       -1.086590e-01
        91         1        7.248556e-01
        92         1       -5.731218e-01
        93         1       -1.337658e+00
        94         1       -1.027578e+00
        95         1       -1.290579e+00
        96         1        4.734274e-01
        97         1        3.975187e-01
        98         1       -1.185950e+00
        99         1        6.314937e-01
       100         1       -7.662453e-01
         1         2       -1.607275e-01
         2         2        5.362554e-01
         3         2       -1.499898e+00
         4         2        1.749492e+00
         5         2        5.890821e-01
         6         2        5.150281e-01
         7         2       -5.058255e-01
         8         2        1.028213e+00
         9         2       -1.077815e+00
        10         2        2.885734e-01
        11         2        3.855304e-02
        12         2       -1.588450e+00
        13         2        3.620206e-01
        14         2       -1.108363e+00
        15         2       -1.586428e+00
        16         2       -4.208058e-01
        17         2        1.682744e-01
        18         2       -3.090955e-01
        19         2       -8.354765e-01
        20         2       -1.166185e+00
        21         2        5.289611e-01
        22         2       -2.246979e-01
        23         2        3.994387e-01
        24         2        3.079372e-01
        25         2        1.160933e-01
        26         2        8.219526e-01
        27         2        6.707159e-01
        28         2        7.384142e-01
        29         2       -6.212177e-01
        30         2        2.333915e+00
        31         2        1.840063e+00
        32         2       -1.466700e+00
        33         2       -3.952803e-01
        34         2        3.737242e-01
        35         2        1.963319e+00
        36         2        7.867554e-01
        37         2       -7.408673e-01
        38         2       -4.296531e-01
        39         2       -9.147216e-01
        40         2        6.944871e-01
        41         2       -1.019507e+00
        42         2        3.812487e-01
        43         2        1.088009e+00
        44         2       -1.144889e+00
        45         2       -9.482804e-01
        46         2        1.893363e+00
        47         2        8.797413e-01
        48         2        5.824872e-02
        49         2       -6.403061e-01
        50         2       -6.266946e-01
        51         2        1.126748e+00
        52         2       -1.249167e+00
        53         2        1.270921e+00
        54         2       -6.807383e-01
        55         2       -1.916555e+00
        56         2        5.706285e-01
        57         2        8.137921e-01
        58         2       -3.592900e-01
        59         2        1.078769e+00
        60         2       -9.095603e-01
        61         2        8.734736e-01
        62         2        1.201786e+00
        63         2       -1.010643e+00
        64         2       -2.263096e+00
        65         2        3.095543e-01
        66         2        4.420390e-01
        67         2       -1.688539e-01
        68         2        7.094344e-01
        69         2        3.593915e-01
        70         2       -4.363994e-01
        71         2        1.892441e+00
        72         2        2.218922e+00
        73         2       -3.020560e-01
        74         2       -5.806536e-01
        75         2       -1.548826e+00
        76         2       -1.111234e+00
        77         2        2.076585e+00
        78         2        7.648814e-01
        79         2       -5.670717e-01
        80         2       -1.335792e+00
        81         2       -1.255002e+00
        82         2       -9.387849e-01
        83         2        2.619091e+00
        84         2       -1.727827e-01
        85         2        1.241628e-01
        86         2        1.301058e+00
        87         2        3.056093e-01
        88         2       -8.645149e-01
        89         2       -3.099886e-01
        90         2       -3.331609e-01
        91         2        1.009592e+00
        92         2       -4.846565e-01
        93         2        1.080273e+00
        94         2        3.215879e-02
        95         2       -2.630546e-01
        96         2        7.696116e-01
        97         2       -1.281764e+00
        98         2        3.941107e-02
        99         2       -1.893312e+00
       100         2       -1.977575e-01
         1         3       -1.224032e-01
         2         3        1.402689e+00
         3         3        1.240631e+00
         4         3       -2.675848e-01
         5         3        4.731144e-01
         6         3       -8.133096e-01
         7         3        1.495172e+00
         8         3       -1.775746e+00
         9         3       -8.273972e-01
        10         3        8.934218e-01
        11         3        9.149314e-02
        12         3        5.586563e-01
        13         3       -6.059023e-01
        14         3       -5.107685e-01
        15         3       -1.075591e+00
        16         3       -1.304391e-01
        17         3        1.054120e+00
        18         3       -1.642296e+00
        19         3        3.281772e-01
        20         3        4.487043e-01
        21         3       -2.067769e+00
        22         3       -2.240922e-01
        23         3        1.413451e+00
        24         3        2.220612e-02
        25         3        3.287454e-01
        26         3       -8.723453e-01
        27         3        2.320988e-01
        28         3        5.255619e-01
        29         3        1.833573e-01
        30         3        2.842363e+00
        31         3       -3.571252e-01
        32         3       -3.103644e+00
        33         3       -1.577239e-01
        34         3        9.312391e-01
        35         3       -1.008244e+00
        36         3        9.061090e-02
        37         3       -2.942873e-01
        38         3        1.204931e+00
        39         3       -2.130128e+00
        40         3       -3.988843e-01
        41         3       -7.828969e-02
        42         3       -9.957604e-01
        43         3        1.966070e-01
        44         3        8.061649e-01
        45         3       -3.857766e-01
        46         3       -1.904054e-01
        47         3       -1.805120e+00
        48         3       -5.928180e-01
        49         3        1.126059e+00
        50         3        3.515943e-01
        51         3        8.093984e-01
        52         3        9.536733e-01
        53         3        1.583147e-01
        54         3        6.359938e-01
        55         3       -1.209730e+00
        56         3        1.398847e+00
        57         3       -1.137303e+00
        58         3       -6.732245e-01
        59         3        1.669183e+00
        60         3       -3.419132e-01
        61         3       -9.917802e-02
        62         3       -1.740755e+00
        63         3        1.138370e+00
        64         3       -1.276622e+00
        65         3       -2.605528e+00
        66         3        8.254324e-01
        67         3        1.098407e-01
        68         3       -1.771976e+00
        69         3        5.764134e-01
        70         3       -6.131831e-01
        71         3       -4.293121e-01
        72         3       -5.948905e-02
        73         3       -1.574826e-01
        74         3        1.264212e+00
        75         3       -5.036707e-02
        76         3       -1.102062e+00
        77         3       -1.472455e+00
        78         3        2.000293e+00
        79         3        1.312839e-01
        80         3        8.647411e-02
        81         3        6.864267e-01
        82         3       -9.319665e-01
        83         3        6.723828e-01
        84         3        2.100120e+00
        85         3       -3.795291e-01
        86         3        5.173726e-01
        87         3       -6.396249e-01
        88         3        4.371977e-01
        89         3       -1.691570e+00
        90         3       -1.395149e+00
        91         3        4.779536e-01
        92         3       -2.607253e-01
        93         3        4.549290e-01
        94         3        6.748366e-01
        95         3        6.936846e-02
        96         3       -3.801125e-01
        97         3       -9.320737e-01
        98         3        1.407151e+00
        99         3        4.740690e-01
       100         3        8.361759e-01
         1         4        1.038766e+00
         2         4        1.940699e-01
         3         4        7.493680e-01
         4         4       -5.957406e-01
         5         4        6.190117e-01
         6         4       -1.115615e+00
         7         4       -1.720529e+00
         8         4        1.093452e-01
         9         4       -5.784704e-01
        10         4        1.003262e+00
        11         4       -3.505692e-02
        12         4       -3.025445e-01
        13         4       -9.462209e-02
        14         4       -2.605696e-01
        15         4       -8.195862e-01
        16         4       -2.602054e-01
        17         4       -1.295402e+00
        18         4        7.247014e-01
        19         4       -6.900848e-01
        20         4       -2.388403e-01
        21         4       -4.334283e-01
        22         4       -3.660783e-01
        23         4        2.300510e-01
        24         4       -1.690491e+00
        25         4       -1.383971e-02
        26         4       -3.295085e-01
        27         4       -8.323844e-01
        28         4       -7.126464e-01
        29         4        2.962828e-01
        30         4        1.194088e+00
        31         4       -2.393153e-01
        32         4       -8.220581e-02
        33         4        1.085248e+00
        34         4        1.703700e+00
        35         4       -1.375130e+00
        36         4        7.762476e-01
        37         4       -9.172261e-01
        38         4        1.477678e-01
        39         4        1.028862e+00
        40         4        1.014768e-01
        41         4        1.527419e+00
        42         4       -1.718304e+00
        43         4        8.659966e-02
        44         4        6.919772e-01
        45         4        8.215811e-01
        46         4        9.497128e-01
        47         4       -1.760519e+00
        48         4        7.452064e-01
        49         4        6.654422e-01
        50         4        1.027567e+00
        51         4       -1.030957e+00
        52         4       -1.744449e-01
        53         4       -5.052889e-01
        54         4        1.675599e-01
        55         4       -9.357769e-01
        56         4       -8.438473e-01
        57         4        1.139462e+00
        58         4        8.171993e-01
        59         4        3.380059e-01
        60         4        6.434821e-01
        61         4       -2.266276e-01
        62         4       -9.896154e-01
        63         4       -2.179459e+00
        64         4        2.706146e-02
        65         4       -1.844971e+00
        66         4       -5.940399e-01
        67         4        4.779912e-01
        68         4        4.247703e-01
        69         4        2.839208e-01
        70         4        1.462502e+00
        71         4       -1.052661e+00
        72         4        2.328710e-01
        73         4       -1.842762e-01
        74         4       -1.873221e-01
        75         4        1.134871e-01
        76         4        1.082476e-01
        77         4       -2.624463e-01
        78         4        2.701315e+00
        79         4       -1.308297e+00
        80         4       -1.276101e-01
        81         4       -3.278108e-01
        82         4        4.660758e-01
        83         4       -2.488568e-01
        84         4       -2.530332e-01
        85         4        6.390559e-01
        86         4       -7.977603e-01
        87         4        1.782371e-01
        88         4        1.312904e+00
        89         4        5.610764e-01
        90         4       -1.371949e+00
        91         4       -1.642139e+00
        92         4       -3.724031e-01
        93         4       -6.348828e-02
        94         4       -1.164371e+00
        95         4        6.437092e-01
        96         4       -6.980635e-01
        97         4       -2.112714e+00
        98         4       -1.626039e+00
        99         4       -3.995410e-03
       100         4       -5.625025e-01
         1         5        4.689518e-01
         2         5       -1.192213e+00
         3         5       -1.376204e+00
         4         5        6.573029e-01
         5         5        8.843970e-01
         6         5       -1.059415e+00
         7         5       -1.614552e-01
         8         5        7.598232e-01
         9         5        1.237524e+00
        10         5       -4.042766e-01
        11         5       -8.392827e-01
        12         5       -5.215156e-01
        13         5        2.862877e-01
        14         5        7.501605e-02
        15         5        1.682885e+00
        16         5       -6.108401e-01
        17         5       -7.763425e-01
        18         5       -1.181481e+00
        19         5       -9.391378e-01
        20         5        6.518501e-01
        21         5        8.821950e-01
        22         5        1.768948e+00
        23         5        4.459764e-02
        24         5        1.511612e-01
        25         5       -4.140658e-02
        26         5        7.613027e-01
        27         5        1.386844e+00
        28         5        8.074662e-01
        29         5        1.314693e-01
        30         5       -1.505643e-01
        31         5        1.493044e+00
        32         5        2.387464e-01
        33         5       -4.104482e-01
        34         5       -1.177411e+00
        35         5        5.570020e-01
        36         5       -1.382246e+00
        37         5       -6.325988e-01
        38         5        1.384353e+00
        39         5        1.362486e+00
        40         5        1.502042e+00
        41         5       -5.222949e-01
        42         5       -5.965713e-01
        43         5       -9.588733e-01
        44         5        7.271569e-01
        45         5       -2.274749e+00
        46         5       -3.400238e-01
        47         5       -1.241942e+00
        48         5        1.371244e+00
        49         5       -1.736242e-01
        50         5       -4.875179e-01
        51         5        1.445799e+00
        52         5        5.105445e-03
        53         5        6.541299e-01
        54         5       -7.548335e-01
        55         5       -5.804494e-01
        56         5        4.938009e-01
        57         5       -1.225146e+00
        58         5        3.067310e-01
        59         5       -4.714313e-01
        60         5        9.291641e-01
        61         5        3.516695e-01
        62         5       -1.807540e+00
        63         5        1.293914e+00
        64         5        1.641648e+00
        65         5        4.225281e-02
        66         5       -2.190677e-01
        67         5       -1.174064e+00
        68         5        6.222233e-01
        69         5        2.501858e+00
        70         5       -2.294371e-01
        71         5        4.031506e-02
        72         5        1.941483e-01
        73         5       -2.715213e-01
        74         5       -7.574767e-01
        75         5       -1.686509e+00
        76         5        7.819547e-01
        77         5       -1.334058e+00
        78         5        1.110817e+00
        79         5       -1.095349e-01
        80         5        3.188536e-02
        81         5       -3.138295e-01
        82         5        3.005572e-02
        83         5        2.310615e-01
        84         5       -2.993495e-01
        85         5        8.769689e-01
        86         5        1.391655e+00
        87         5       -8.869788e-01
        88         5        1.212868e+00
        89         5        1.672231e+00
        90         5       -1.045160e-01
        91         5        6.313822e-01
        92         5       -1.770979e+00
        93         5        2.871640e-01
        94         5       -1.373142e-01
        95         5        1.639784e+00
        96         5        7.678156e-01
        97         5        6.056335e-01
        98         5       -6.580241e-01
        99         5       -2.730459e-01
       100         5       -1.574600e+00
;

param theta:=
    1        9.804455e-02
    2       -6.138082e-01
    3        2.417294e-01
    4       -1.745449e+00
    5       -3.951335e-01
;
param X_true:=
    1       -2.205800e+00
    2        2.955388e-01
    3        5.061549e-01
    4       -4.905565e-01
    5       -1.510217e+00
    6        1.906535e+00
    7        3.669213e+00
    8       -1.617210e+00
    9        8.816656e-01
   10       -1.361316e+00
   11        2.674554e-01
   12        1.966500e+00
   13       -2.443395e-01
   14        8.891342e-01
   15        1.466925e+00
   16        9.720975e-01
   17        2.770171e+00
   18       -9.900422e-01
   19        2.203812e+00
   20        1.070612e+00
   21       -4.698010e-01
   22        3.017190e-02
   23       -2.385104e-01
   24        2.684949e+00
   25       -1.207290e-02
   26       -4.224110e-01
   27        6.864394e-01
   28        5.474276e-01
   29       -3.680490e-01
   30       -2.753920e+00
   31       -1.424345e+00
   32        3.324094e-01
   33       -1.436546e+00
   34       -2.573053e+00
   35        6.333262e-01
   36       -1.252630e+00
   37        2.340924e+00
   38       -1.123179e-01
   39       -2.355221e+00
   40       -1.240957e+00
   41       -1.920764e+00
   42        2.845678e+00
   43       -4.132433e-01
   44       -6.891689e-01
   45       -1.320886e-02
   46       -2.604143e+00
   47        2.568255e+00
   48       -1.996100e+00
   49       -4.475940e-01
   50       -1.354749e+00
   51        8.382459e-01
   52        1.373541e+00
   53        2.270513e-02
   54        5.507216e-01
   55        2.515901e+00
   56        1.220611e+00
   57       -2.213676e+00
   58       -1.407985e+00
   59       -7.364294e-01
   60       -1.027190e+00
   61       -2.346225e-01
   62        1.340428e+00
   63        4.289654e+00
   64        2.464762e-01
   65        2.373883e+00
   66        1.013887e+00
   67       -9.698614e-02
   68       -1.849459e+00
   69       -1.471994e+00
   70       -2.268658e+00
   71        7.569735e-01
   72       -1.913235e+00
   73        6.044231e-01
   74        1.213417e+00
   75        1.503145e+00
   76       -1.594646e-01
   77       -6.796259e-01
   78       -5.359806e+00
   79        2.483736e+00
   80        9.659074e-01
   81        1.579981e+00
   82       -5.163866e-01
   83       -1.312346e+00
   84        1.209725e+00
   85       -1.506374e+00
   86        1.587545e-01
   87       -4.902299e-01
   88       -2.356127e+00
   89       -1.677551e+00
   90        2.291249e+00
   91        2.182412e+00
   92        1.528011e+00
   93       -6.868679e-01
   94        2.129795e+00
   95       -1.718586e+00
   96        3.971809e-01
   97        4.049634e+00
   98        3.297661e+00
   99        1.453658e+00
  100        1.851239e+00
;
param X:=
    1       -2.205800e+00
    2        3.028456e-01
    3       -1.647559e-02
    4       -2.472130e+00
    5        3.339730e-01
    6        1.906535e+00
    7       -1.329996e-01
    8       -1.003118e+00
    9        6.566559e-01
   10        3.886610e-01
   11       -1.106610e-01
   12        1.014870e+00
   13        9.271073e-01
   14       -6.236514e-01
   15       -8.271344e-01
   16        1.228701e-01
   17       -5.118132e-01
   18        1.117786e+00
   19       -4.910299e-01
   20       -1.101269e+00
   21        1.121266e-01
   22       -4.755480e-01
   23       -1.396634e-02
   24       -3.790583e-01
   25       -1.207290e-02
   26        5.551992e-01
   27        7.317921e-01
   28       -1.610916e+00
   29       -1.386949e-01
   30       -5.840004e-01
   31       -1.099127e+00
   32       -3.828705e-01
   33        5.142038e-01
   34       -2.573053e+00
   35        6.333262e-01
   36        4.421856e-01
   37        2.340924e+00
   38       -8.550456e-01
   39        1.217371e+00
   40       -9.413758e-02
   41        2.015303e-01
   42       -5.017199e-01
   43       -5.338123e-01
   44        2.835119e-01
   45       -8.180413e-02
   46        1.378308e+00
   47       -1.482227e+00
   48        1.628841e+00
   49        8.807349e-01
   50       -8.899417e-01
   51       -5.223954e-01
   52       -2.294408e+00
   53        2.270513e-02
   54       -2.663421e+00
   55       -2.212031e+00
   56        3.420012e-01
   57        7.105777e-01
   58        1.258550e+00
   59        5.638826e-01
   60        3.202553e-01
   61       -7.475773e-02
   62       -1.066909e+00
   63       -6.832719e-01
   64        2.464762e-01
   65       -7.587707e-01
   66       -4.527071e-01
   67       -2.121627e-01
   68       -1.849459e+00
   69        4.421110e-01
   70        6.901322e-02
   71       -1.326017e-01
   72        3.933116e-01
   73        1.129069e+00
   74       -4.953651e-01
   75        8.674340e-02
   76       -3.560656e-01
   77       -7.207737e-01
   78        7.739294e-01
   79       -3.582826e-01
   80        1.050079e+00
   81        1.579981e+00
   82       -5.163866e-01
   83       -1.356421e+00
   84        1.081457e+00
   85       -9.059228e-03
   86       -7.361060e-01
   87       -1.614323e-01
   88       -2.356127e+00
   89        1.629116e+00
   90        2.291249e+00
   91        1.124092e+00
   92        1.222627e-01
   93        9.383489e-03
   94       -1.075058e+00
   95       -1.402626e+00
   96        3.249914e-01
   97       -1.352092e+00
   98        3.297661e+00
   99        1.130768e-01
  100        2.046793e+00
;
param outliervec:=
    1    0
    2    1
    3    1
    4    1
    5    1
    6    0
    7    1
    8    1
    9    1
   10    1
   11    1
   12    1
   13    1
   14    1
   15    1
   16    1
   17    1
   18    1
   19    1
   20    1
   21    1
   22    1
   23    1
   24    1
   25    0
   26    1
   27    1
   28    1
   29    1
   30    1
   31    1
   32    1
   33    1
   34    0
   35    0
   36    1
   37    0
   38    1
   39    1
   40    1
   41    1
   42    1
   43    1
   44    1
   45    1
   46    1
   47    1
   48    1
   49    1
   50    1
   51    1
   52    1
   53    0
   54    1
   55    1
   56    1
   57    1
   58    1
   59    1
   60    1
   61    1
   62    1
   63    1
   64    0
   65    1
   66    1
   67    1
   68    0
   69    1
   70    1
   71    1
   72    1
   73    1
   74    1
   75    1
   76    1
   77    1
   78    1
   79    1
   80    1
   81    0
   82    0
   83    1
   84    1
   85    1
   86    1
   87    1
   88    0
   89    1
   90    0
   91    1
   92    1
   93    1
   94    1
   95    1
   96    1
   97    1
   98    0
   99    1
  100    1
;